words_train/words_614_SAT.qaiger
aag 54 16 0 1 38
32
10
14
8
22
4
20
26
6
30
12
2
18
16
28
24
109
34 33 17
36 34 13
38 35 12
40 39 37
42 31 15
44 43 10
46 45 40
48 9 7
50 48 5
52 50 3
54 52 40
56 42 11
58 57 55
60 58 47
62 25 23
64 48 18
66 64 62
68 67 3
70 69 21
72 70 61
74 52 47
76 75 59
78 7 2
80 27 11
82 81 78
84 82 22
86 80 79
88 87 85
90 89 5
92 9 2
94 29 13
96 95 92
98 96 24
100 94 93
102 101 99
104 103 90
106 104 77
108 106 72
i0 1 x[7]
i1 2 z[4]
i2 2 z[6]
i3 2 z[3]
i4 1 x[2]
i5 2 z[1]
i6 1 x[1]
i7 1 x[4]
i8 2 z[2]
i9 1 x[6]
i10 2 z[5]
i11 2 z[0]
i12 1 x[0]
i13 2 z[7]
i14 1 x[5]
i15 1 x[3]
o0 bool[0]
c
simplified
  !=
    subtract
      abs
        1
      << 2
        2 z
    or
      2 z
      1 x
