words_train/words_614_SAT.qaiger.qdimacs
p cnf 54 115
a 9 10 11 12 13 14 15 16 0
e 1 2 3 4 5 6 7 8 17 18 19 20 21 22 23 24 25 26 27 28 29 30 31 32 33 34 35 36 37 38 39 40 41 42 43 44 45 46 47 48 49 50 51 52 53 54 0
16 8 17 0
-16 -17 0
-8 -17 0
-17 6 18 0
17 -18 0
-6 -18 0
17 -6 19 0
-17 -19 0
6 -19 0
19 18 20 0
-19 -20 0
-18 -20 0
15 7 21 0
-15 -21 0
-7 -21 0
21 -5 22 0
-21 -22 0
5 -22 0
22 -20 23 0
-22 -23 0
20 -23 0
4 3 24 0
-4 -24 0
-3 -24 0
-24 2 25 0
24 -25 0
-2 -25 0
-25 1 26 0
25 -26 0
-1 -26 0
-26 -20 27 0
26 -27 0
20 -27 0
-21 5 28 0
21 -28 0
-5 -28 0
28 27 29 0
-28 -29 0
-27 -29 0
-29 23 30 0
29 -30 0
-23 -30 0
12 11 31 0
-12 -31 0
-11 -31 0
-24 -9 32 0
24 -32 0
9 -32 0
-32 -31 33 0
32 -33 0
31 -33 0
33 1 34 0
-33 -34 0
-1 -34 0
34 10 35 0
-34 -35 0
-10 -35 0
-35 30 36 0
35 -36 0
-30 -36 0
-26 23 37 0
26 -37 0
-23 -37 0
37 29 38 0
-37 -38 0
-29 -38 0
3 -1 39 0
-3 -39 0
1 -39 0
13 5 40 0
-13 -40 0
-5 -40 0
40 -39 41 0
-40 -41 0
39 -41 0
-41 -11 42 0
41 -42 0
11 -42 0
-40 39 43 0
40 -43 0
-39 -43 0
43 42 44 0
-43 -44 0
-42 -44 0
44 2 45 0
-44 -45 0
-2 -45 0
4 -1 46 0
-4 -46 0
1 -46 0
14 6 47 0
-14 -47 0
-6 -47 0
47 -46 48 0
-47 -48 0
46 -48 0
-48 -12 49 0
48 -49 0
12 -49 0
-47 46 50 0
47 -50 0
-46 -50 0
50 49 51 0
-50 -51 0
-49 -51 0
51 -45 52 0
-51 -52 0
45 -52 0
-52 38 53 0
52 -53 0
-38 -53 0
-53 -36 54 0
53 -54 0
36 -54 0
-54 0
